minizinc/sudoku_problems2/sudoku_p44.dzn
%
% sudoku_p44.dzn
% See http://www.hakank.org/minizinc/sudoku_gcc.mzn
% 
% This problem is problem 44 from
% Gecode's sudoku.cpp
% http://www.gecode.org/gecode-doc-latest/sudoku_8cpp-source.html
% 
x = array2d(1..n, 1..n, [   
% http://janko.at/Raetsel/Sudoku/361.a.htm
% 44
  _, 16,  _,  _,  5,  _,  2,  _, 14,  _, 15, 10,  _,  4, 12,  _,
 10, 11,  _,  _, 16,  _,  _,  _,  _,  3,  5,  _,  1,  7, 13,  9,
  5,  3,  _,  _,  4, 10, 12,  _,  _, 13, 11,  _,  _,  _,  _,  _,
  _,  6,  _, 12,  3, 11,  _,  _,  2,  _,  8,  _,  5,  _,  _,  _,
  1,  _,  _,  _, 10,  _,  _,  _,  _, 14,  _, 13,  9, 12, 16,  3,
 16, 13, 10,  9,  _,  4,  _,  _, 11,  _,  1,  _,  6, 14,  _,  _,
  _, 15, 11,  _,  1,  _,  _, 14,  9,  _,  _,  _,  _, 13,  _,  8,
 12,  _,  _,  3,  _,  5,  9, 16,  4,  8,  _,  _,  _,  _,  _,  _,
  _,  _,  _,  _,  _,  _, 15,  3,  8, 16,  2,  _,  7,  _,  _,  4,
  6,  _,  3,  _,  _,  _,  _, 10,  7,  _,  _,  9,  _,  8, 14,  _,
  _,  _, 12, 14,  _,  9,  _,  1,  _,  _,  4,  _, 13, 16,  3,  5,
  8,  9, 16, 13,  2,  _,  4,  _,  _,  _,  _,  6,  _,  _,  _, 12,
  _,  _,  _, 16,  _, 12,  _,  4,  _,  _,  9,  5,  8,  _,  7,  _,
  _,  _,  _,  _,  _,  1, 10,  _,  _, 15,  7,  8,  _,  _,  4,  2,
  4,  8,  7,  1,  _,  3, 16,  _,  _,  _,  _,  2,  _,  _,  9, 10,
  _, 12,  9,  _,  7,  2,  _,  8,  _,  6,  _,  4,  _,  _,  1,  _
]);

n = 16;


